500
400
320
320
320
320
318
317
316
316
315
315
314
313
313
313
313
312
312
312
312
312
312
312
312
312
310
309
309
309
309
309
309
309
308
308
308
307
307
307
306
305
305
304
303
303
302
302
302
301
301
301
300
300
300
300
300
299
299
298
298
298
298
297
297
296
295
295
294
293
292
292
292
291
291
290
289
289
288
288
287
287
286
286
284
284
283
282
282
281
281
281
281
280
279
279
279
278
278
277
277
276
275
275
275
275
275
275
274
274
273
273
271
270
270
270
269
268
268
267
267
266
266
265
265
264
264
264
264
263
263
262
262
261
260
259
258
258
258
257
257
256
256
255
255
255
254
253
252
252
252
252
252
251
250
249
249
249
248
247
246
246
246
245
245
245
244
244
241
241
241
241
241
240
240
240
239
238
238
237
237
237
237
236
236
236
235
235
235
234
234
234
233
233
233
233
232
232
232
231
231
231
230
230
230
228
228
228
227
227
227
227
226
226
226
226
226
225
225
224
223
223
223
222
222
222
221
221
220
219
219
219
219
218
217
217
217
217
216
216
215
214
213
213
212
212
210
209
209
206
205
205
205
205
205
203
202
202
202
201
201
200
200
199
199
199
198
198
198
196
196
195
194
194
194
193
192
191
191
190
190
190
189
189
188
188
187
187
187
186
186
186
185
185
184
184
184
183
183
183
183
182
182
182
182
181
181
180
180
180
179
178
178
177
177
177
177
176
176
175
175
174
174
174
174
172
170
170
170
170
170
169
169
169
168
168
168
167
166
166
165
164
164
163
162
162
161
160
160
160
159
159
159
158
158
158
158
158
157
157
156
156
155
155
155
153
152
151
151
150
150
150
149
148
148
148
147
146
144
144
144
143
143
141
141
141
141
140
140
139
138
138
138
138
138
137
136
135
134
134
134
134
133
133
133
133
132
131
130
130
130
130
128
128
128
127
127
127
126
126
125
125
124
124
123
123
122
122
122
121
121
120
120
119
119
118
118
117
117
117
116
116
116
115
115
114
114
112
112
112
112
111
111
109
109
108
107
107
107
106
105
104
104
104
103
103
102
101
101
101
100
100
100
99
99
99
95
95
94
94
94
93
93
92
92
92
92
91
91
87
87
87
87
84
84
83
82
82
82
82
81
80
